(declare-fun var0 () String)
(assert (str.in.re var0 (re.++ (re.union (re.+ (str.to.re "ee")) (re.+ (str.to.re "ff"))) (re.++ (re.union (re.union (str.to.re "bb") (str.to.re "c")) (re.+ (str.to.re "d"))) (re.++ (re.+ (re.+ (str.to.re "a"))) (re.++ (re.union (re.union (str.to.re "6") (str.to.re "7")) (re.union (str.to.re "888") (str.to.re "999"))) (re.++ (re.+ (re.union (str.to.re "44") (str.to.re "555"))) (re.++ (re.+ (re.union (str.to.re "2") (str.to.re "3"))) (re.++ (re.* (re.+ (str.to.re "1"))) (re.+ (re.* (str.to.re "0"))))))))))))
(check-sat)